(set-info :smt-lib-version 2.6)
(set-logic QF_IDL)
(set-info :source |
Queens benchmarks generated by Hyondeuk Kim in SMT-LIB format.
|)
(set-info :category "crafted")
;;; (set-info :status unsat)
(declare-fun x0 () Int)
(declare-fun x1 () Int)
(declare-fun x2 () Int)
(declare-fun x3 () Int)
(declare-fun x4 () Int)
(declare-fun x5 () Int)
(declare-fun x6 () Int)
(declare-fun x7 () Int)
(declare-fun x8 () Int)
(declare-fun x9 () Int)
(declare-fun x10 () Int)
(declare-fun x11 () Int)
(declare-fun x12 () Int)
(declare-fun x13 () Int)
(declare-fun x14 () Int)
(declare-fun x15 () Int)
(declare-fun x16 () Int)
(declare-fun x17 () Int)
(declare-fun x18 () Int)
(assert (let ((?v_0 (- x0 x18)) (?v_1 (- x1 x18)) (?v_2 (- x2 x18)) (?v_3 (- x3 x18)) (?v_4 (- x4 x18)) (?v_5 (- x5 x18)) (?v_6 (- x6 x18)) (?v_7 (- x7 x18)) (?v_8 (- x8 x18)) (?v_9 (- x9 x18)) (?v_10 (- x10 x18)) (?v_11 (- x11 x18)) (?v_12 (- x12 x18)) (?v_13 (- x13 x18)) (?v_14 (- x14 x18)) (?v_15 (- x15 x18)) (?v_16 (- x16 x18)) (?v_17 (- x17 x18)) (?v_18 (- x0 x1)) (?v_19 (- x0 x2)) (?v_20 (- x0 x3)) (?v_21 (- x0 x4)) (?v_22 (- x0 x5)) (?v_23 (- x0 x6)) (?v_24 (- x0 x7)) (?v_25 (- x0 x8)) (?v_26 (- x0 x9)) (?v_27 (- x0 x10)) (?v_28 (- x0 x11)) (?v_29 (- x0 x12)) (?v_30 (- x0 x13)) (?v_31 (- x0 x14)) (?v_32 (- x0 x15)) (?v_33 (- x0 x16)) (?v_34 (- x0 x17)) (?v_35 (- x1 x2)) (?v_36 (- x1 x3)) (?v_37 (- x1 x4)) (?v_38 (- x1 x5)) (?v_39 (- x1 x6)) (?v_40 (- x1 x7)) (?v_41 (- x1 x8)) (?v_42 (- x1 x9)) (?v_43 (- x1 x10)) (?v_44 (- x1 x11)) (?v_45 (- x1 x12)) (?v_46 (- x1 x13)) (?v_47 (- x1 x14)) (?v_48 (- x1 x15)) (?v_49 (- x1 x16)) (?v_50 (- x1 x17)) (?v_51 (- x2 x3)) (?v_52 (- x2 x4)) (?v_53 (- x2 x5)) (?v_54 (- x2 x6)) (?v_55 (- x2 x7)) (?v_56 (- x2 x8)) (?v_57 (- x2 x9)) (?v_58 (- x2 x10)) (?v_59 (- x2 x11)) (?v_60 (- x2 x12)) (?v_61 (- x2 x13)) (?v_62 (- x2 x14)) (?v_63 (- x2 x15)) (?v_64 (- x2 x16)) (?v_65 (- x2 x17)) (?v_66 (- x3 x4)) (?v_67 (- x3 x5)) (?v_68 (- x3 x6)) (?v_69 (- x3 x7)) (?v_70 (- x3 x8)) (?v_71 (- x3 x9)) (?v_72 (- x3 x10)) (?v_73 (- x3 x11)) (?v_74 (- x3 x12)) (?v_75 (- x3 x13)) (?v_76 (- x3 x14)) (?v_77 (- x3 x15)) (?v_78 (- x3 x16)) (?v_79 (- x3 x17)) (?v_80 (- x4 x5)) (?v_81 (- x4 x6)) (?v_82 (- x4 x7)) (?v_83 (- x4 x8)) (?v_84 (- x4 x9)) (?v_85 (- x4 x10)) (?v_86 (- x4 x11)) (?v_87 (- x4 x12)) (?v_88 (- x4 x13)) (?v_89 (- x4 x14)) (?v_90 (- x4 x15)) (?v_91 (- x4 x16)) (?v_92 (- x4 x17)) (?v_93 (- x5 x6)) (?v_94 (- x5 x7)) (?v_95 (- x5 x8)) (?v_96 (- x5 x9)) (?v_97 (- x5 x10)) (?v_98 (- x5 x11)) (?v_99 (- x5 x12)) (?v_100 (- x5 x13)) (?v_101 (- x5 x14)) (?v_102 (- x5 x15)) (?v_103 (- x5 x16)) (?v_104 (- x5 x17)) (?v_105 (- x6 x7)) (?v_106 (- x6 x8)) (?v_107 (- x6 x9)) (?v_108 (- x6 x10)) (?v_109 (- x6 x11)) (?v_110 (- x6 x12)) (?v_111 (- x6 x13)) (?v_112 (- x6 x14)) (?v_113 (- x6 x15)) (?v_114 (- x6 x16)) (?v_115 (- x6 x17)) (?v_116 (- x7 x8)) (?v_117 (- x7 x9)) (?v_118 (- x7 x10)) (?v_119 (- x7 x11)) (?v_120 (- x7 x12)) (?v_121 (- x7 x13)) (?v_122 (- x7 x14)) (?v_123 (- x7 x15)) (?v_124 (- x7 x16)) (?v_125 (- x7 x17)) (?v_126 (- x8 x9)) (?v_127 (- x8 x10)) (?v_128 (- x8 x11)) (?v_129 (- x8 x12)) (?v_130 (- x8 x13)) (?v_131 (- x8 x14)) (?v_132 (- x8 x15)) (?v_133 (- x8 x16)) (?v_134 (- x8 x17)) (?v_135 (- x9 x10)) (?v_136 (- x9 x11)) (?v_137 (- x9 x12)) (?v_138 (- x9 x13)) (?v_139 (- x9 x14)) (?v_140 (- x9 x15)) (?v_141 (- x9 x16)) (?v_142 (- x9 x17)) (?v_143 (- x10 x11)) (?v_144 (- x10 x12)) (?v_145 (- x10 x13)) (?v_146 (- x10 x14)) (?v_147 (- x10 x15)) (?v_148 (- x10 x16)) (?v_149 (- x10 x17)) (?v_150 (- x11 x12)) (?v_151 (- x11 x13)) (?v_152 (- x11 x14)) (?v_153 (- x11 x15)) (?v_154 (- x11 x16)) (?v_155 (- x11 x17)) (?v_156 (- x12 x13)) (?v_157 (- x12 x14)) (?v_158 (- x12 x15)) (?v_159 (- x12 x16)) (?v_160 (- x12 x17)) (?v_161 (- x13 x14)) (?v_162 (- x13 x15)) (?v_163 (- x13 x16)) (?v_164 (- x13 x17)) (?v_165 (- x14 x15)) (?v_166 (- x14 x16)) (?v_167 (- x14 x17)) (?v_168 (- x15 x16)) (?v_169 (- x15 x17)) (?v_170 (- x16 x17))) (and (<= ?v_0 17) (>= ?v_0 0) (<= ?v_1 17) (>= ?v_1 0) (<= ?v_2 17) (>= ?v_2 0) (<= ?v_3 17) (>= ?v_3 0) (<= ?v_4 17) (>= ?v_4 0) (<= ?v_5 17) (>= ?v_5 0) (<= ?v_6 17) (>= ?v_6 0) (<= ?v_7 17) (>= ?v_7 0) (<= ?v_8 17) (>= ?v_8 0) (<= ?v_9 17) (>= ?v_9 0) (<= ?v_10 17) (>= ?v_10 0) (<= ?v_11 17) (>= ?v_11 0) (<= ?v_12 17) (>= ?v_12 0) (<= ?v_13 17) (>= ?v_13 0) (<= ?v_14 17) (>= ?v_14 0) (<= ?v_15 17) (>= ?v_15 0) (<= ?v_16 17) (>= ?v_16 0) (<= ?v_17 17) (>= ?v_17 0) (not (= x0 x1)) (not (= x0 x2)) (not (= x0 x3)) (not (= x0 x4)) (not (= x0 x5)) (not (= x0 x6)) (not (= x0 x7)) (not (= x0 x8)) (not (= x0 x9)) (not (= x0 x10)) (not (= x0 x11)) (not (= x0 x12)) (not (= x0 x13)) (not (= x0 x14)) (not (= x0 x15)) (not (= x0 x16)) (not (= x0 x17)) (not (= x1 x2)) (not (= x1 x3)) (not (= x1 x4)) (not (= x1 x5)) (not (= x1 x6)) (not (= x1 x7)) (not (= x1 x8)) (not (= x1 x9)) (not (= x1 x10)) (not (= x1 x11)) (not (= x1 x12)) (not (= x1 x13)) (not (= x1 x14)) (not (= x1 x15)) (not (= x1 x16)) (not (= x1 x17)) (not (= x2 x3)) (not (= x2 x4)) (not (= x2 x5)) (not (= x2 x6)) (not (= x2 x7)) (not (= x2 x8)) (not (= x2 x9)) (not (= x2 x10)) (not (= x2 x11)) (not (= x2 x12)) (not (= x2 x13)) (not (= x2 x14)) (not (= x2 x15)) (not (= x2 x16)) (not (= x2 x17)) (not (= x3 x4)) (not (= x3 x5)) (not (= x3 x6)) (not (= x3 x7)) (not (= x3 x8)) (not (= x3 x9)) (not (= x3 x10)) (not (= x3 x11)) (not (= x3 x12)) (not (= x3 x13)) (not (= x3 x14)) (not (= x3 x15)) (not (= x3 x16)) (not (= x3 x17)) (not (= x4 x5)) (not (= x4 x6)) (not (= x4 x7)) (not (= x4 x8)) (not (= x4 x9)) (not (= x4 x10)) (not (= x4 x11)) (not (= x4 x12)) (not (= x4 x13)) (not (= x4 x14)) (not (= x4 x15)) (not (= x4 x16)) (not (= x4 x17)) (not (= x5 x6)) (not (= x5 x7)) (not (= x5 x8)) (not (= x5 x9)) (not (= x5 x10)) (not (= x5 x11)) (not (= x5 x12)) (not (= x5 x13)) (not (= x5 x14)) (not (= x5 x15)) (not (= x5 x16)) (not (= x5 x17)) (not (= x6 x7)) (not (= x6 x8)) (not (= x6 x9)) (not (= x6 x10)) (not (= x6 x11)) (not (= x6 x12)) (not (= x6 x13)) (not (= x6 x14)) (not (= x6 x15)) (not (= x6 x16)) (not (= x6 x17)) (not (= x7 x8)) (not (= x7 x9)) (not (= x7 x10)) (not (= x7 x11)) (not (= x7 x12)) (not (= x7 x13)) (not (= x7 x14)) (not (= x7 x15)) (not (= x7 x16)) (not (= x7 x17)) (not (= x8 x9)) (not (= x8 x10)) (not (= x8 x11)) (not (= x8 x12)) (not (= x8 x13)) (not (= x8 x14)) (not (= x8 x15)) (not (= x8 x16)) (not (= x8 x17)) (not (= x9 x10)) (not (= x9 x11)) (not (= x9 x12)) (not (= x9 x13)) (not (= x9 x14)) (not (= x9 x15)) (not (= x9 x16)) (not (= x9 x17)) (not (= x10 x11)) (not (= x10 x12)) (not (= x10 x13)) (not (= x10 x14)) (not (= x10 x15)) (not (= x10 x16)) (not (= x10 x17)) (not (= x11 x12)) (not (= x11 x13)) (not (= x11 x14)) (not (= x11 x15)) (not (= x11 x16)) (not (= x11 x17)) (not (= x12 x13)) (not (= x12 x14)) (not (= x12 x15)) (not (= x12 x16)) (not (= x12 x17)) (not (= x13 x14)) (not (= x13 x15)) (not (= x13 x16)) (not (= x13 x17)) (not (= x14 x15)) (not (= x14 x16)) (not (= x14 x17)) (not (= x15 x16)) (not (= x15 x17)) (not (= x16 x17)) (not (= ?v_18 1)) (not (= ?v_18 (- 1))) (not (= ?v_18 17)) (not (= ?v_18 (- 17))) (not (= ?v_19 2)) (not (= ?v_19 (- 2))) (not (= ?v_19 16)) (not (= ?v_19 (- 16))) (not (= ?v_20 3)) (not (= ?v_20 (- 3))) (not (= ?v_20 15)) (not (= ?v_20 (- 15))) (not (= ?v_21 4)) (not (= ?v_21 (- 4))) (not (= ?v_21 14)) (not (= ?v_21 (- 14))) (not (= ?v_22 5)) (not (= ?v_22 (- 5))) (not (= ?v_22 13)) (not (= ?v_22 (- 13))) (not (= ?v_23 6)) (not (= ?v_23 (- 6))) (not (= ?v_23 12)) (not (= ?v_23 (- 12))) (not (= ?v_24 7)) (not (= ?v_24 (- 7))) (not (= ?v_24 11)) (not (= ?v_24 (- 11))) (not (= ?v_25 8)) (not (= ?v_25 (- 8))) (not (= ?v_25 10)) (not (= ?v_25 (- 10))) (not (= ?v_26 9)) (not (= ?v_26 (- 9))) (not (= ?v_27 10)) (not (= ?v_27 (- 10))) (not (= ?v_27 8)) (not (= ?v_27 (- 8))) (not (= ?v_28 11)) (not (= ?v_28 (- 11))) (not (= ?v_28 7)) (not (= ?v_28 (- 7))) (not (= ?v_29 12)) (not (= ?v_29 (- 12))) (not (= ?v_29 6)) (not (= ?v_29 (- 6))) (not (= ?v_30 13)) (not (= ?v_30 (- 13))) (not (= ?v_30 5)) (not (= ?v_30 (- 5))) (not (= ?v_31 14)) (not (= ?v_31 (- 14))) (not (= ?v_31 4)) (not (= ?v_31 (- 4))) (not (= ?v_32 15)) (not (= ?v_32 (- 15))) (not (= ?v_32 3)) (not (= ?v_32 (- 3))) (not (= ?v_33 16)) (not (= ?v_33 (- 16))) (not (= ?v_33 2)) (not (= ?v_33 (- 2))) (not (= ?v_34 17)) (not (= ?v_34 (- 17))) (not (= ?v_34 1)) (not (= ?v_34 (- 1))) (not (= ?v_35 1)) (not (= ?v_35 (- 1))) (not (= ?v_35 17)) (not (= ?v_35 (- 17))) (not (= ?v_36 2)) (not (= ?v_36 (- 2))) (not (= ?v_36 16)) (not (= ?v_36 (- 16))) (not (= ?v_37 3)) (not (= ?v_37 (- 3))) (not (= ?v_37 15)) (not (= ?v_37 (- 15))) (not (= ?v_38 4)) (not (= ?v_38 (- 4))) (not (= ?v_38 14)) (not (= ?v_38 (- 14))) (not (= ?v_39 5)) (not (= ?v_39 (- 5))) (not (= ?v_39 13)) (not (= ?v_39 (- 13))) (not (= ?v_40 6)) (not (= ?v_40 (- 6))) (not (= ?v_40 12)) (not (= ?v_40 (- 12))) (not (= ?v_41 7)) (not (= ?v_41 (- 7))) (not (= ?v_41 11)) (not (= ?v_41 (- 11))) (not (= ?v_42 8)) (not (= ?v_42 (- 8))) (not (= ?v_42 10)) (not (= ?v_42 (- 10))) (not (= ?v_43 9)) (not (= ?v_43 (- 9))) (not (= ?v_44 10)) (not (= ?v_44 (- 10))) (not (= ?v_44 8)) (not (= ?v_44 (- 8))) (not (= ?v_45 11)) (not (= ?v_45 (- 11))) (not (= ?v_45 7)) (not (= ?v_45 (- 7))) (not (= ?v_46 12)) (not (= ?v_46 (- 12))) (not (= ?v_46 6)) (not (= ?v_46 (- 6))) (not (= ?v_47 13)) (not (= ?v_47 (- 13))) (not (= ?v_47 5)) (not (= ?v_47 (- 5))) (not (= ?v_48 14)) (not (= ?v_48 (- 14))) (not (= ?v_48 4)) (not (= ?v_48 (- 4))) (not (= ?v_49 15)) (not (= ?v_49 (- 15))) (not (= ?v_49 3)) (not (= ?v_49 (- 3))) (not (= ?v_50 16)) (not (= ?v_50 (- 16))) (not (= ?v_50 2)) (not (= ?v_50 (- 2))) (not (= ?v_51 1)) (not (= ?v_51 (- 1))) (not (= ?v_51 17)) (not (= ?v_51 (- 17))) (not (= ?v_52 2)) (not (= ?v_52 (- 2))) (not (= ?v_52 16)) (not (= ?v_52 (- 16))) (not (= ?v_53 3)) (not (= ?v_53 (- 3))) (not (= ?v_53 15)) (not (= ?v_53 (- 15))) (not (= ?v_54 4)) (not (= ?v_54 (- 4))) (not (= ?v_54 14)) (not (= ?v_54 (- 14))) (not (= ?v_55 5)) (not (= ?v_55 (- 5))) (not (= ?v_55 13)) (not (= ?v_55 (- 13))) (not (= ?v_56 6)) (not (= ?v_56 (- 6))) (not (= ?v_56 12)) (not (= ?v_56 (- 12))) (not (= ?v_57 7)) (not (= ?v_57 (- 7))) (not (= ?v_57 11)) (not (= ?v_57 (- 11))) (not (= ?v_58 8)) (not (= ?v_58 (- 8))) (not (= ?v_58 10)) (not (= ?v_58 (- 10))) (not (= ?v_59 9)) (not (= ?v_59 (- 9))) (not (= ?v_60 10)) (not (= ?v_60 (- 10))) (not (= ?v_60 8)) (not (= ?v_60 (- 8))) (not (= ?v_61 11)) (not (= ?v_61 (- 11))) (not (= ?v_61 7)) (not (= ?v_61 (- 7))) (not (= ?v_62 12)) (not (= ?v_62 (- 12))) (not (= ?v_62 6)) (not (= ?v_62 (- 6))) (not (= ?v_63 13)) (not (= ?v_63 (- 13))) (not (= ?v_63 5)) (not (= ?v_63 (- 5))) (not (= ?v_64 14)) (not (= ?v_64 (- 14))) (not (= ?v_64 4)) (not (= ?v_64 (- 4))) (not (= ?v_65 15)) (not (= ?v_65 (- 15))) (not (= ?v_65 3)) (not (= ?v_65 (- 3))) (not (= ?v_66 1)) (not (= ?v_66 (- 1))) (not (= ?v_66 17)) (not (= ?v_66 (- 17))) (not (= ?v_67 2)) (not (= ?v_67 (- 2))) (not (= ?v_67 16)) (not (= ?v_67 (- 16))) (not (= ?v_68 3)) (not (= ?v_68 (- 3))) (not (= ?v_68 15)) (not (= ?v_68 (- 15))) (not (= ?v_69 4)) (not (= ?v_69 (- 4))) (not (= ?v_69 14)) (not (= ?v_69 (- 14))) (not (= ?v_70 5)) (not (= ?v_70 (- 5))) (not (= ?v_70 13)) (not (= ?v_70 (- 13))) (not (= ?v_71 6)) (not (= ?v_71 (- 6))) (not (= ?v_71 12)) (not (= ?v_71 (- 12))) (not (= ?v_72 7)) (not (= ?v_72 (- 7))) (not (= ?v_72 11)) (not (= ?v_72 (- 11))) (not (= ?v_73 8)) (not (= ?v_73 (- 8))) (not (= ?v_73 10)) (not (= ?v_73 (- 10))) (not (= ?v_74 9)) (not (= ?v_74 (- 9))) (not (= ?v_75 10)) (not (= ?v_75 (- 10))) (not (= ?v_75 8)) (not (= ?v_75 (- 8))) (not (= ?v_76 11)) (not (= ?v_76 (- 11))) (not (= ?v_76 7)) (not (= ?v_76 (- 7))) (not (= ?v_77 12)) (not (= ?v_77 (- 12))) (not (= ?v_77 6)) (not (= ?v_77 (- 6))) (not (= ?v_78 13)) (not (= ?v_78 (- 13))) (not (= ?v_78 5)) (not (= ?v_78 (- 5))) (not (= ?v_79 14)) (not (= ?v_79 (- 14))) (not (= ?v_79 4)) (not (= ?v_79 (- 4))) (not (= ?v_80 1)) (not (= ?v_80 (- 1))) (not (= ?v_80 17)) (not (= ?v_80 (- 17))) (not (= ?v_81 2)) (not (= ?v_81 (- 2))) (not (= ?v_81 16)) (not (= ?v_81 (- 16))) (not (= ?v_82 3)) (not (= ?v_82 (- 3))) (not (= ?v_82 15)) (not (= ?v_82 (- 15))) (not (= ?v_83 4)) (not (= ?v_83 (- 4))) (not (= ?v_83 14)) (not (= ?v_83 (- 14))) (not (= ?v_84 5)) (not (= ?v_84 (- 5))) (not (= ?v_84 13)) (not (= ?v_84 (- 13))) (not (= ?v_85 6)) (not (= ?v_85 (- 6))) (not (= ?v_85 12)) (not (= ?v_85 (- 12))) (not (= ?v_86 7)) (not (= ?v_86 (- 7))) (not (= ?v_86 11)) (not (= ?v_86 (- 11))) (not (= ?v_87 8)) (not (= ?v_87 (- 8))) (not (= ?v_87 10)) (not (= ?v_87 (- 10))) (not (= ?v_88 9)) (not (= ?v_88 (- 9))) (not (= ?v_89 10)) (not (= ?v_89 (- 10))) (not (= ?v_89 8)) (not (= ?v_89 (- 8))) (not (= ?v_90 11)) (not (= ?v_90 (- 11))) (not (= ?v_90 7)) (not (= ?v_90 (- 7))) (not (= ?v_91 12)) (not (= ?v_91 (- 12))) (not (= ?v_91 6)) (not (= ?v_91 (- 6))) (not (= ?v_92 13)) (not (= ?v_92 (- 13))) (not (= ?v_92 5)) (not (= ?v_92 (- 5))) (not (= ?v_93 1)) (not (= ?v_93 (- 1))) (not (= ?v_93 17)) (not (= ?v_93 (- 17))) (not (= ?v_94 2)) (not (= ?v_94 (- 2))) (not (= ?v_94 16)) (not (= ?v_94 (- 16))) (not (= ?v_95 3)) (not (= ?v_95 (- 3))) (not (= ?v_95 15)) (not (= ?v_95 (- 15))) (not (= ?v_96 4)) (not (= ?v_96 (- 4))) (not (= ?v_96 14)) (not (= ?v_96 (- 14))) (not (= ?v_97 5)) (not (= ?v_97 (- 5))) (not (= ?v_97 13)) (not (= ?v_97 (- 13))) (not (= ?v_98 6)) (not (= ?v_98 (- 6))) (not (= ?v_98 12)) (not (= ?v_98 (- 12))) (not (= ?v_99 7)) (not (= ?v_99 (- 7))) (not (= ?v_99 11)) (not (= ?v_99 (- 11))) (not (= ?v_100 8)) (not (= ?v_100 (- 8))) (not (= ?v_100 10)) (not (= ?v_100 (- 10))) (not (= ?v_101 9)) (not (= ?v_101 (- 9))) (not (= ?v_102 10)) (not (= ?v_102 (- 10))) (not (= ?v_102 8)) (not (= ?v_102 (- 8))) (not (= ?v_103 11)) (not (= ?v_103 (- 11))) (not (= ?v_103 7)) (not (= ?v_103 (- 7))) (not (= ?v_104 12)) (not (= ?v_104 (- 12))) (not (= ?v_104 6)) (not (= ?v_104 (- 6))) (not (= ?v_105 1)) (not (= ?v_105 (- 1))) (not (= ?v_105 17)) (not (= ?v_105 (- 17))) (not (= ?v_106 2)) (not (= ?v_106 (- 2))) (not (= ?v_106 16)) (not (= ?v_106 (- 16))) (not (= ?v_107 3)) (not (= ?v_107 (- 3))) (not (= ?v_107 15)) (not (= ?v_107 (- 15))) (not (= ?v_108 4)) (not (= ?v_108 (- 4))) (not (= ?v_108 14)) (not (= ?v_108 (- 14))) (not (= ?v_109 5)) (not (= ?v_109 (- 5))) (not (= ?v_109 13)) (not (= ?v_109 (- 13))) (not (= ?v_110 6)) (not (= ?v_110 (- 6))) (not (= ?v_110 12)) (not (= ?v_110 (- 12))) (not (= ?v_111 7)) (not (= ?v_111 (- 7))) (not (= ?v_111 11)) (not (= ?v_111 (- 11))) (not (= ?v_112 8)) (not (= ?v_112 (- 8))) (not (= ?v_112 10)) (not (= ?v_112 (- 10))) (not (= ?v_113 9)) (not (= ?v_113 (- 9))) (not (= ?v_114 10)) (not (= ?v_114 (- 10))) (not (= ?v_114 8)) (not (= ?v_114 (- 8))) (not (= ?v_115 11)) (not (= ?v_115 (- 11))) (not (= ?v_115 7)) (not (= ?v_115 (- 7))) (not (= ?v_116 1)) (not (= ?v_116 (- 1))) (not (= ?v_116 17)) (not (= ?v_116 (- 17))) (not (= ?v_117 2)) (not (= ?v_117 (- 2))) (not (= ?v_117 16)) (not (= ?v_117 (- 16))) (not (= ?v_118 3)) (not (= ?v_118 (- 3))) (not (= ?v_118 15)) (not (= ?v_118 (- 15))) (not (= ?v_119 4)) (not (= ?v_119 (- 4))) (not (= ?v_119 14)) (not (= ?v_119 (- 14))) (not (= ?v_120 5)) (not (= ?v_120 (- 5))) (not (= ?v_120 13)) (not (= ?v_120 (- 13))) (not (= ?v_121 6)) (not (= ?v_121 (- 6))) (not (= ?v_121 12)) (not (= ?v_121 (- 12))) (not (= ?v_122 7)) (not (= ?v_122 (- 7))) (not (= ?v_122 11)) (not (= ?v_122 (- 11))) (not (= ?v_123 8)) (not (= ?v_123 (- 8))) (not (= ?v_123 10)) (not (= ?v_123 (- 10))) (not (= ?v_124 9)) (not (= ?v_124 (- 9))) (not (= ?v_125 10)) (not (= ?v_125 (- 10))) (not (= ?v_125 8)) (not (= ?v_125 (- 8))) (not (= ?v_126 1)) (not (= ?v_126 (- 1))) (not (= ?v_126 17)) (not (= ?v_126 (- 17))) (not (= ?v_127 2)) (not (= ?v_127 (- 2))) (not (= ?v_127 16)) (not (= ?v_127 (- 16))) (not (= ?v_128 3)) (not (= ?v_128 (- 3))) (not (= ?v_128 15)) (not (= ?v_128 (- 15))) (not (= ?v_129 4)) (not (= ?v_129 (- 4))) (not (= ?v_129 14)) (not (= ?v_129 (- 14))) (not (= ?v_130 5)) (not (= ?v_130 (- 5))) (not (= ?v_130 13)) (not (= ?v_130 (- 13))) (not (= ?v_131 6)) (not (= ?v_131 (- 6))) (not (= ?v_131 12)) (not (= ?v_131 (- 12))) (not (= ?v_132 7)) (not (= ?v_132 (- 7))) (not (= ?v_132 11)) (not (= ?v_132 (- 11))) (not (= ?v_133 8)) (not (= ?v_133 (- 8))) (not (= ?v_133 10)) (not (= ?v_133 (- 10))) (not (= ?v_134 9)) (not (= ?v_134 (- 9))) (not (= ?v_135 1)) (not (= ?v_135 (- 1))) (not (= ?v_135 17)) (not (= ?v_135 (- 17))) (not (= ?v_136 2)) (not (= ?v_136 (- 2))) (not (= ?v_136 16)) (not (= ?v_136 (- 16))) (not (= ?v_137 3)) (not (= ?v_137 (- 3))) (not (= ?v_137 15)) (not (= ?v_137 (- 15))) (not (= ?v_138 4)) (not (= ?v_138 (- 4))) (not (= ?v_138 14)) (not (= ?v_138 (- 14))) (not (= ?v_139 5)) (not (= ?v_139 (- 5))) (not (= ?v_139 13)) (not (= ?v_139 (- 13))) (not (= ?v_140 6)) (not (= ?v_140 (- 6))) (not (= ?v_140 12)) (not (= ?v_140 (- 12))) (not (= ?v_141 7)) (not (= ?v_141 (- 7))) (not (= ?v_141 11)) (not (= ?v_141 (- 11))) (not (= ?v_142 8)) (not (= ?v_142 (- 8))) (not (= ?v_142 10)) (not (= ?v_142 (- 10))) (not (= ?v_143 1)) (not (= ?v_143 (- 1))) (not (= ?v_143 17)) (not (= ?v_143 (- 17))) (not (= ?v_144 2)) (not (= ?v_144 (- 2))) (not (= ?v_144 16)) (not (= ?v_144 (- 16))) (not (= ?v_145 3)) (not (= ?v_145 (- 3))) (not (= ?v_145 15)) (not (= ?v_145 (- 15))) (not (= ?v_146 4)) (not (= ?v_146 (- 4))) (not (= ?v_146 14)) (not (= ?v_146 (- 14))) (not (= ?v_147 5)) (not (= ?v_147 (- 5))) (not (= ?v_147 13)) (not (= ?v_147 (- 13))) (not (= ?v_148 6)) (not (= ?v_148 (- 6))) (not (= ?v_148 12)) (not (= ?v_148 (- 12))) (not (= ?v_149 7)) (not (= ?v_149 (- 7))) (not (= ?v_149 11)) (not (= ?v_149 (- 11))) (not (= ?v_150 1)) (not (= ?v_150 (- 1))) (not (= ?v_150 17)) (not (= ?v_150 (- 17))) (not (= ?v_151 2)) (not (= ?v_151 (- 2))) (not (= ?v_151 16)) (not (= ?v_151 (- 16))) (not (= ?v_152 3)) (not (= ?v_152 (- 3))) (not (= ?v_152 15)) (not (= ?v_152 (- 15))) (not (= ?v_153 4)) (not (= ?v_153 (- 4))) (not (= ?v_153 14)) (not (= ?v_153 (- 14))) (not (= ?v_154 5)) (not (= ?v_154 (- 5))) (not (= ?v_154 13)) (not (= ?v_154 (- 13))) (not (= ?v_155 6)) (not (= ?v_155 (- 6))) (not (= ?v_155 12)) (not (= ?v_155 (- 12))) (not (= ?v_156 1)) (not (= ?v_156 (- 1))) (not (= ?v_156 17)) (not (= ?v_156 (- 17))) (not (= ?v_157 2)) (not (= ?v_157 (- 2))) (not (= ?v_157 16)) (not (= ?v_157 (- 16))) (not (= ?v_158 3)) (not (= ?v_158 (- 3))) (not (= ?v_158 15)) (not (= ?v_158 (- 15))) (not (= ?v_159 4)) (not (= ?v_159 (- 4))) (not (= ?v_159 14)) (not (= ?v_159 (- 14))) (not (= ?v_160 5)) (not (= ?v_160 (- 5))) (not (= ?v_160 13)) (not (= ?v_160 (- 13))) (not (= ?v_161 1)) (not (= ?v_161 (- 1))) (not (= ?v_161 17)) (not (= ?v_161 (- 17))) (not (= ?v_162 2)) (not (= ?v_162 (- 2))) (not (= ?v_162 16)) (not (= ?v_162 (- 16))) (not (= ?v_163 3)) (not (= ?v_163 (- 3))) (not (= ?v_163 15)) (not (= ?v_163 (- 15))) (not (= ?v_164 4)) (not (= ?v_164 (- 4))) (not (= ?v_164 14)) (not (= ?v_164 (- 14))) (not (= ?v_165 1)) (not (= ?v_165 (- 1))) (not (= ?v_165 17)) (not (= ?v_165 (- 17))) (not (= ?v_166 2)) (not (= ?v_166 (- 2))) (not (= ?v_166 16)) (not (= ?v_166 (- 16))) (not (= ?v_167 3)) (not (= ?v_167 (- 3))) (not (= ?v_167 15)) (not (= ?v_167 (- 15))) (not (= ?v_168 1)) (not (= ?v_168 (- 1))) (not (= ?v_168 17)) (not (= ?v_168 (- 17))) (not (= ?v_169 2)) (not (= ?v_169 (- 2))) (not (= ?v_169 16)) (not (= ?v_169 (- 16))) (not (= ?v_170 1)) (not (= ?v_170 (- 1))) (not (= ?v_170 17)) (not (= ?v_170 (- 17))))))
(check-sat)
(exit)
